# Solution for model GNN
# Objective value = 1.6865953229158588e+00
A[0,0] 1
A[0,1] 1
A[0,2] 1
A[0,3] 1
A[1,0] 1
A[1,1] 1
A[1,2] 1
A[1,3] 1
A[2,0] 1
A[2,1] 1
A[2,2] 1
A[2,3] 1
A[3,0] 1
A[3,1] 1
A[3,2] 1
A[3,3] 1
x[0,0] 1
x[0,1] 0
x[0,2] 0
x[0,3] 0
x[0,4] 0
x[0,5] 0
x[0,6] 0
x[0,7] 1
x[0,8] 0
x[0,9] 0
x[0,10] 1
x[0,11] 0
x[0,12] 0
x[0,13] 0
x[1,0] 1
x[1,1] 0
x[1,2] 0
x[1,3] 0
x[1,4] 0
x[1,5] 0
x[1,6] 0
x[1,7] 1
x[1,8] 0
x[1,9] 0
x[1,10] 1
x[1,11] 0
x[1,12] 0
x[1,13] 0
x[2,0] 1
x[2,1] 0
x[2,2] 0
x[2,3] 0
x[2,4] 0
x[2,5] 0
x[2,6] 0
x[2,7] 1
x[2,8] 0
x[2,9] 0
x[2,10] 1
x[2,11] 0
x[2,12] 0
x[2,13] 0
x[3,0] 1
x[3,1] 0
x[3,2] 0
x[3,3] 0
x[3,4] 0
x[3,5] 0
x[3,6] 0
x[3,7] 1
x[3,8] 0
x[3,9] 0
x[3,10] 1
x[3,11] 0
x[3,12] 0
x[3,13] 0
c[0,0,0] 0
c[0,0,1] 0
c[0,0,2] 0
c[0,0,3] 0
c[0,0,4] 0
c[0,0,5] 0
c[0,0,6] 0
c[0,0,7] 0
c[0,0,8] 0
c[0,0,9] 0
c[0,0,10] 0
c[0,0,11] 0
c[0,0,12] 0
c[0,0,13] 0
c[0,0,14] 0
c[0,0,15] 0
c[0,0,16] 0
c[0,0,17] 0
c[0,0,18] 0
c[0,0,19] 0
c[0,0,20] 0
c[0,0,21] 0
c[0,0,22] 0
c[0,0,23] 0
c[0,0,24] 1
c[0,1,0] 0
c[0,1,1] 0
c[0,1,2] 0
c[0,1,3] 0
c[0,1,4] 0
c[0,1,5] 0
c[0,1,6] 0
c[0,1,7] 0
c[0,1,8] 0
c[0,1,9] 0
c[0,1,10] 0
c[0,1,11] 0
c[0,1,12] 0
c[0,1,13] 0
c[0,1,14] 0
c[0,1,15] 0
c[0,1,16] 0
c[0,1,17] 0
c[0,1,18] 0
c[0,1,19] 0
c[0,1,20] 0
c[0,1,21] 0
c[0,1,22] 0
c[0,1,23] 0
c[0,1,24] 1
c[0,2,0] 0
c[0,2,1] 0
c[0,2,2] 0
c[0,2,3] 0
c[0,2,4] 0
c[0,2,5] 0
c[0,2,6] 0
c[0,2,7] 0
c[0,2,8] 0
c[0,2,9] 0
c[0,2,10] 0
c[0,2,11] 0
c[0,2,12] 0
c[0,2,13] 0
c[0,2,14] 0
c[0,2,15] 0
c[0,2,16] 0
c[0,2,17] 0
c[0,2,18] 0
c[0,2,19] 0
c[0,2,20] 0
c[0,2,21] 0
c[0,2,22] 0
c[0,2,23] 0
c[0,2,24] 1
c[0,3,0] 0
c[0,3,1] 0
c[0,3,2] 0
c[0,3,3] 0
c[0,3,4] 0
c[0,3,5] 0
c[0,3,6] 0
c[0,3,7] 0
c[0,3,8] 0
c[0,3,9] 0
c[0,3,10] 0
c[0,3,11] 0
c[0,3,12] 0
c[0,3,13] 0
c[0,3,14] 0
c[0,3,15] 0
c[0,3,16] 0
c[0,3,17] 0
c[0,3,18] 0
c[0,3,19] 0
c[0,3,20] 0
c[0,3,21] 0
c[0,3,22] 0
c[0,3,23] 0
c[0,3,24] 1
c[1,0,0] 0
c[1,0,1] 0
c[1,0,2] 0
c[1,0,3] 0
c[1,0,4] 0
c[1,0,5] 0
c[1,0,6] 0
c[1,0,7] 0
c[1,0,8] 0
c[1,0,9] 0
c[1,0,10] 0
c[1,0,11] 0
c[1,0,12] 0
c[1,0,13] 0
c[1,0,14] 0
c[1,0,15] 0
c[1,0,16] 0
c[1,0,17] 0
c[1,0,18] 0
c[1,0,19] 0
c[1,0,20] 0
c[1,0,21] 0
c[1,0,22] 0
c[1,0,23] 0
c[1,0,24] 1
c[1,1,0] 0
c[1,1,1] 0
c[1,1,2] 0
c[1,1,3] 0
c[1,1,4] 0
c[1,1,5] 0
c[1,1,6] 0
c[1,1,7] 0
c[1,1,8] 0
c[1,1,9] 0
c[1,1,10] 0
c[1,1,11] 0
c[1,1,12] 0
c[1,1,13] 0
c[1,1,14] 0
c[1,1,15] 0
c[1,1,16] 0
c[1,1,17] 0
c[1,1,18] 0
c[1,1,19] 0
c[1,1,20] 0
c[1,1,21] 0
c[1,1,22] 0
c[1,1,23] 0
c[1,1,24] 1
c[1,2,0] 0
c[1,2,1] 0
c[1,2,2] 0
c[1,2,3] 0
c[1,2,4] 0
c[1,2,5] 0
c[1,2,6] 0
c[1,2,7] 0
c[1,2,8] 0
c[1,2,9] 0
c[1,2,10] 0
c[1,2,11] 0
c[1,2,12] 0
c[1,2,13] 0
c[1,2,14] 0
c[1,2,15] 0
c[1,2,16] 0
c[1,2,17] 0
c[1,2,18] 0
c[1,2,19] 0
c[1,2,20] 0
c[1,2,21] 0
c[1,2,22] 0
c[1,2,23] 0
c[1,2,24] 1
c[1,3,0] 0
c[1,3,1] 0
c[1,3,2] 0
c[1,3,3] 0
c[1,3,4] 0
c[1,3,5] 0
c[1,3,6] 0
c[1,3,7] 0
c[1,3,8] 0
c[1,3,9] 0
c[1,3,10] 0
c[1,3,11] 0
c[1,3,12] 0
c[1,3,13] 0
c[1,3,14] 0
c[1,3,15] 0
c[1,3,16] 0
c[1,3,17] 0
c[1,3,18] 0
c[1,3,19] 0
c[1,3,20] 0
c[1,3,21] 0
c[1,3,22] 0
c[1,3,23] 0
c[1,3,24] 1
c[2,0,0] 0
c[2,0,1] 0
c[2,0,2] 0
c[2,0,3] 0
c[2,0,4] 0
c[2,0,5] 0
c[2,0,6] 0
c[2,0,7] 0
c[2,0,8] 0
c[2,0,9] 0
c[2,0,10] 0
c[2,0,11] 0
c[2,0,12] 0
c[2,0,13] 0
c[2,0,14] 0
c[2,0,15] 0
c[2,0,16] 0
c[2,0,17] 0
c[2,0,18] 0
c[2,0,19] 0
c[2,0,20] 0
c[2,0,21] 0
c[2,0,22] 0
c[2,0,23] 0
c[2,0,24] 1
c[2,1,0] 0
c[2,1,1] 0
c[2,1,2] 0
c[2,1,3] 0
c[2,1,4] 0
c[2,1,5] 0
c[2,1,6] 0
c[2,1,7] 0
c[2,1,8] 0
c[2,1,9] 0
c[2,1,10] 0
c[2,1,11] 0
c[2,1,12] 0
c[2,1,13] 0
c[2,1,14] 0
c[2,1,15] 0
c[2,1,16] 0
c[2,1,17] 0
c[2,1,18] 0
c[2,1,19] 0
c[2,1,20] 0
c[2,1,21] 0
c[2,1,22] 0
c[2,1,23] 0
c[2,1,24] 1
c[2,2,0] 0
c[2,2,1] 0
c[2,2,2] 0
c[2,2,3] 0
c[2,2,4] 0
c[2,2,5] 0
c[2,2,6] 0
c[2,2,7] 0
c[2,2,8] 0
c[2,2,9] 0
c[2,2,10] 0
c[2,2,11] 0
c[2,2,12] 0
c[2,2,13] 0
c[2,2,14] 0
c[2,2,15] 0
c[2,2,16] 0
c[2,2,17] 0
c[2,2,18] 0
c[2,2,19] 0
c[2,2,20] 0
c[2,2,21] 0
c[2,2,22] 0
c[2,2,23] 0
c[2,2,24] 1
c[2,3,0] 0
c[2,3,1] 0
c[2,3,2] 0
c[2,3,3] 0
c[2,3,4] 0
c[2,3,5] 0
c[2,3,6] 0
c[2,3,7] 0
c[2,3,8] 0
c[2,3,9] 0
c[2,3,10] 0
c[2,3,11] 0
c[2,3,12] 0
c[2,3,13] 0
c[2,3,14] 0
c[2,3,15] 0
c[2,3,16] 0
c[2,3,17] 0
c[2,3,18] 0
c[2,3,19] 0
c[2,3,20] 0
c[2,3,21] 0
c[2,3,22] 0
c[2,3,23] 0
c[2,3,24] 1
c[3,0,0] 0
c[3,0,1] 0
c[3,0,2] 0
c[3,0,3] 0
c[3,0,4] 0
c[3,0,5] 0
c[3,0,6] 0
c[3,0,7] 0
c[3,0,8] 0
c[3,0,9] 0
c[3,0,10] 0
c[3,0,11] 0
c[3,0,12] 0
c[3,0,13] 0
c[3,0,14] 0
c[3,0,15] 0
c[3,0,16] 0
c[3,0,17] 0
c[3,0,18] 0
c[3,0,19] 0
c[3,0,20] 0
c[3,0,21] 0
c[3,0,22] 0
c[3,0,23] 0
c[3,0,24] 1
c[3,1,0] 0
c[3,1,1] 0
c[3,1,2] 0
c[3,1,3] 0
c[3,1,4] 0
c[3,1,5] 0
c[3,1,6] 0
c[3,1,7] 0
c[3,1,8] 0
c[3,1,9] 0
c[3,1,10] 0
c[3,1,11] 0
c[3,1,12] 0
c[3,1,13] 0
c[3,1,14] 0
c[3,1,15] 0
c[3,1,16] 0
c[3,1,17] 0
c[3,1,18] 0
c[3,1,19] 0
c[3,1,20] 0
c[3,1,21] 0
c[3,1,22] 0
c[3,1,23] 0
c[3,1,24] 1
c[3,2,0] 0
c[3,2,1] 0
c[3,2,2] 0
c[3,2,3] 0
c[3,2,4] 0
c[3,2,5] 0
c[3,2,6] 0
c[3,2,7] 0
c[3,2,8] 0
c[3,2,9] 0
c[3,2,10] 0
c[3,2,11] 0
c[3,2,12] 0
c[3,2,13] 0
c[3,2,14] 0
c[3,2,15] 0
c[3,2,16] 0
c[3,2,17] 0
c[3,2,18] 0
c[3,2,19] 0
c[3,2,20] 0
c[3,2,21] 0
c[3,2,22] 0
c[3,2,23] 0
c[3,2,24] 1
c[3,3,0] 0
c[3,3,1] 0
c[3,3,2] 0
c[3,3,3] 0
c[3,3,4] 0
c[3,3,5] 0
c[3,3,6] 0
c[3,3,7] 0
c[3,3,8] 0
c[3,3,9] 0
c[3,3,10] 0
c[3,3,11] 0
c[3,3,12] 0
c[3,3,13] 0
c[3,3,14] 0
c[3,3,15] 0
c[3,3,16] 0
c[3,3,17] 0
c[3,3,18] 0
c[3,3,19] 0
c[3,3,20] 0
c[3,3,21] 0
c[3,3,22] 0
c[3,3,23] 0
c[3,3,24] 1
b[0,0,0] 0
b[0,0,1] 0
b[0,0,2] 0
b[0,0,3] 0
b[0,0,4] 0
b[0,0,5] 0
b[0,0,6] 0
b[0,0,7] 0
b[0,0,8] 0
b[0,0,9] 0
b[0,0,10] 0
b[0,0,11] 0
b[0,0,12] 0
b[0,0,13] 0
b[0,1,0] 0
b[0,1,1] 0
b[0,1,2] 0
b[0,1,3] 0
b[0,1,4] 0
b[0,1,5] 0
b[0,1,6] 0
b[0,1,7] 0
b[0,1,8] 0
b[0,1,9] 0
b[0,1,10] 0
b[0,1,11] 0
b[0,1,12] 0
b[0,1,13] 0
b[0,2,0] 0
b[0,2,1] 0
b[0,2,2] 0
b[0,2,3] 0
b[0,2,4] 0
b[0,2,5] 0
b[0,2,6] 0
b[0,2,7] 0
b[0,2,8] 0
b[0,2,9] 0
b[0,2,10] 0
b[0,2,11] 0
b[0,2,12] 0
b[0,2,13] 0
b[0,3,0] 0
b[0,3,1] 0
b[0,3,2] 0
b[0,3,3] 0
b[0,3,4] 0
b[0,3,5] 0
b[0,3,6] 0
b[0,3,7] 0
b[0,3,8] 0
b[0,3,9] 0
b[0,3,10] 0
b[0,3,11] 0
b[0,3,12] 0
b[0,3,13] 0
b[1,0,0] 0
b[1,0,1] 0
b[1,0,2] 0
b[1,0,3] 0
b[1,0,4] 0
b[1,0,5] 0
b[1,0,6] 0
b[1,0,7] 0
b[1,0,8] 0
b[1,0,9] 0
b[1,0,10] 0
b[1,0,11] 0
b[1,0,12] 0
b[1,0,13] 0
b[1,1,0] 0
b[1,1,1] 0
b[1,1,2] 0
b[1,1,3] 0
b[1,1,4] 0
b[1,1,5] 0
b[1,1,6] 0
b[1,1,7] 0
b[1,1,8] 0
b[1,1,9] 0
b[1,1,10] 0
b[1,1,11] 0
b[1,1,12] 0
b[1,1,13] 0
b[1,2,0] 0
b[1,2,1] 0
b[1,2,2] 0
b[1,2,3] 0
b[1,2,4] 0
b[1,2,5] 0
b[1,2,6] 0
b[1,2,7] 0
b[1,2,8] 0
b[1,2,9] 0
b[1,2,10] 0
b[1,2,11] 0
b[1,2,12] 0
b[1,2,13] 0
b[1,3,0] 0
b[1,3,1] 0
b[1,3,2] 0
b[1,3,3] 0
b[1,3,4] 0
b[1,3,5] 0
b[1,3,6] 0
b[1,3,7] 0
b[1,3,8] 0
b[1,3,9] 0
b[1,3,10] 0
b[1,3,11] 0
b[1,3,12] 0
b[1,3,13] 0
b[2,0,0] 0
b[2,0,1] 0
b[2,0,2] 0
b[2,0,3] 0
b[2,0,4] 0
b[2,0,5] 0
b[2,0,6] 0
b[2,0,7] 0
b[2,0,8] 0
b[2,0,9] 0
b[2,0,10] 0
b[2,0,11] 0
b[2,0,12] 0
b[2,0,13] 0
b[2,1,0] 0
b[2,1,1] 0
b[2,1,2] 0
b[2,1,3] 0
b[2,1,4] 0
b[2,1,5] 0
b[2,1,6] 0
b[2,1,7] 0
b[2,1,8] 0
b[2,1,9] 0
b[2,1,10] 0
b[2,1,11] 0
b[2,1,12] 0
b[2,1,13] 0
b[2,2,0] 0
b[2,2,1] 0
b[2,2,2] 0
b[2,2,3] 0
b[2,2,4] 0
b[2,2,5] 0
b[2,2,6] 0
b[2,2,7] 0
b[2,2,8] 0
b[2,2,9] 0
b[2,2,10] 0
b[2,2,11] 0
b[2,2,12] 0
b[2,2,13] 0
b[2,3,0] 0
b[2,3,1] 0
b[2,3,2] 0
b[2,3,3] 0
b[2,3,4] 0
b[2,3,5] 0
b[2,3,6] 0
b[2,3,7] 0
b[2,3,8] 0
b[2,3,9] 0
b[2,3,10] 0
b[2,3,11] 0
b[2,3,12] 0
b[2,3,13] 0
b[3,0,0] 0
b[3,0,1] 0
b[3,0,2] 0
b[3,0,3] 0
b[3,0,4] 0
b[3,0,5] 0
b[3,0,6] 0
b[3,0,7] 0
b[3,0,8] 0
b[3,0,9] 0
b[3,0,10] 0
b[3,0,11] 0
b[3,0,12] 0
b[3,0,13] 0
b[3,1,0] 0
b[3,1,1] 0
b[3,1,2] 0
b[3,1,3] 0
b[3,1,4] 0
b[3,1,5] 0
b[3,1,6] 0
b[3,1,7] 0
b[3,1,8] 0
b[3,1,9] 0
b[3,1,10] 0
b[3,1,11] 0
b[3,1,12] 0
b[3,1,13] 0
b[3,2,0] 0
b[3,2,1] 0
b[3,2,2] 0
b[3,2,3] 0
b[3,2,4] 0
b[3,2,5] 0
b[3,2,6] 0
b[3,2,7] 0
b[3,2,8] 0
b[3,2,9] 0
b[3,2,10] 0
b[3,2,11] 0
b[3,2,12] 0
b[3,2,13] 0
b[3,3,0] 0
b[3,3,1] 0
b[3,3,2] 0
b[3,3,3] 0
b[3,3,4] 0
b[3,3,5] 0
b[3,3,6] 0
b[3,3,7] 0
b[3,3,8] 0
b[3,3,9] 0
b[3,3,10] 0
b[3,3,11] 0
b[3,3,12] 0
b[3,3,13] 0
sp[0,0] 0.25
sp[0,1] 0.25
sp[0,2] 0.25
sp[0,3] 0.25
sp[1,0] 0.25
sp[1,1] 0.25
sp[1,2] 0.25
sp[1,3] 0.25
sp[2,0] 0.25
sp[2,1] 0.25
sp[2,2] 0.25
sp[2,3] 0.25
sp[3,0] 0.25
sp[3,1] 0.25
sp[3,2] 0.25
sp[3,3] 0.25
d_plus[0] 4
d_plus[1] 4
d_plus[2] 4
d_plus[3] 4
p[0,0] 24
p[0,1] 24
p[0,2] 24
p[0,3] 24
p[1,0] 24
p[1,1] 24
p[1,2] 24
p[1,3] 24
p[2,0] 24
p[2,1] 24
p[2,2] 24
p[2,3] 24
p[3,0] 24
p[3,1] 24
p[3,2] 24
p[3,3] 24
t[0,0] 0.25
t[0,1] 0.25
t[0,2] 2.4999999999999695e-01
t[0,3] 2.4999999999999895e-01
t[1,0] 0.25
t[1,1] 0.25
t[1,2] 2.4999999999999828e-01
t[1,3] 2.4999999999999872e-01
t[2,0] 2.4999999999999650e-01
t[2,1] 2.4999999999999473e-01
t[2,2] 2.4999999999999961e-01
t[2,3] 2.5000000000000411e-01
t[3,0] 2.4999999999999939e-01
t[3,1] 2.4999999999999939e-01
t[3,2] 2.4999999999999806e-01
t[3,3] 2.4999999999999950e-01
h_prime[0,0] 1.7132113992642883e-01
h_prime[0,1] 0
h_prime[0,2] 0
h_prime[0,3] 0
h_prime[0,4] 6.3832587472239322e-01
h_prime[0,5] 0
h_prime[0,6] 3.7260260042132476e-01
h_prime[0,7] 0
h_prime[0,8] 0.610710889504825
h_prime[0,9] 0
h_prime[0,10] 0
h_prime[0,11] 2.1858035122522868e-01
h_prime[0,12] 0
h_prime[0,13] 3.7414788286085443e-01
h_prime[0,14] 0.572642243480693
h_prime[0,15] 3.3079761443409139e-01
h_prime[0,16] 0
h_prime[0,17] 4.9975654242030043e-02
h_prime[0,18] 0
h_prime[0,19] 2.2827078284090796e-01
h_prime[0,20] 2.7753528054249424e-02
h_prime[0,21] 4.2378089764479343e-01
h_prime[0,22] 3.2412716266714503e-01
h_prime[0,23] 0
h_prime[0,24] 6.1982709165750327e-02
h_prime[0,25] 7.0462644866730428e-02
h_prime[0,26] 0
h_prime[0,27] 0
h_prime[0,28] 3.3891820209372270e-01
h_prime[0,29] 0
h_prime[0,30] 6.3378174476406035e-01
h_prime[0,31] 0
h_prime[1,0] 1.7132113992632614e-01
h_prime[1,1] 0
h_prime[1,2] 0
h_prime[1,3] 0
h_prime[1,4] 6.3832587470492741e-01
h_prime[1,5] 0
h_prime[1,6] 3.7260260042118021e-01
h_prime[1,7] 0
h_prime[1,8] 6.1071088948777263e-01
h_prime[1,9] 0
h_prime[1,10] 0
h_prime[1,11] 2.1858035122482408e-01
h_prime[1,12] 0
h_prime[1,13] 3.7414788283976225e-01
h_prime[1,14] 5.7264224348139481e-01
h_prime[1,15] 3.3079761441695577e-01
h_prime[1,16] 0
h_prime[1,17] 4.9975654227208927e-02
h_prime[1,18] 0
h_prime[1,19] 2.2827078284056837e-01
h_prime[1,20] 2.7753528043964595e-02
h_prime[1,21] 4.2378089762977150e-01
h_prime[1,22] 0.324127162667152
h_prime[1,23] 0
h_prime[1,24] 0.0619827091654688
h_prime[1,25] 0.0704626448663926
h_prime[1,26] 0
h_prime[1,27] 0
h_prime[1,28] 3.3891820209476753e-01
h_prime[1,29] 0
h_prime[1,30] 6.3378174476449989e-01
h_prime[1,31] 0
h_prime[2,0] 1.7132113992628237e-01
h_prime[2,1] 0
h_prime[2,2] 0
h_prime[2,3] 0
h_prime[2,4] 6.3832587470460755e-01
h_prime[2,5] 0
h_prime[2,6] 3.7260260042248411e-01
h_prime[2,7] 0
h_prime[2,8] 6.1071088948731889e-01
h_prime[2,9] 0
h_prime[2,10] 0
h_prime[2,11] 2.1858035122522462e-01
h_prime[2,12] 0
h_prime[2,13] 3.7414788283912176e-01
h_prime[2,14] 5.7264224348258130e-01
h_prime[2,15] 3.3079761441620764e-01
h_prime[2,16] 0
h_prime[2,17] 4.9975654227074423e-02
h_prime[2,18] 0
h_prime[2,19] 2.2827078284079871e-01
h_prime[2,20] 2.7753528043974726e-02
h_prime[2,21] 4.2378089762918325e-01
h_prime[2,22] 0.32412716266732
h_prime[2,23] 0
h_prime[2,24] 6.1982709165508083e-02
h_prime[2,25] 7.0462644865874072e-02
h_prime[2,26] 0
h_prime[2,27] 0
h_prime[2,28] 3.3891820209574108e-01
h_prime[2,29] 0
h_prime[2,30] 6.3378174476565985e-01
h_prime[2,31] 0
h_prime[3,0] 1.7132113992697884e-01
h_prime[3,1] 0
h_prime[3,2] 0
h_prime[3,3] 0
h_prime[3,4] 6.3832587470451507e-01
h_prime[3,5] 0
h_prime[3,6] 3.7260260042177668e-01
h_prime[3,7] 0
h_prime[3,8] 6.1071088948746366e-01
h_prime[3,9] 0
h_prime[3,10] 0
h_prime[3,11] 2.1858035122554337e-01
h_prime[3,12] 0
h_prime[3,13] 3.7414788283907463e-01
h_prime[3,14] 5.7264224348221615e-01
h_prime[3,15] 3.3079761441632377e-01
h_prime[3,16] 0
h_prime[3,17] 0.0499756542267039
h_prime[3,18] 0
h_prime[3,19] 2.2827078284127689e-01
h_prime[3,20] 2.7753528043401570e-02
h_prime[3,21] 4.2378089762942628e-01
h_prime[3,22] 3.2412716266796626e-01
h_prime[3,23] 0
h_prime[3,24] 6.1982709165842725e-02
h_prime[3,25] 7.0462644866811780e-02
h_prime[3,26] 0
h_prime[3,27] 0
h_prime[3,28] 3.3891820209543949e-01
h_prime[3,29] 0
h_prime[3,30] 0.633781744765217
h_prime[3,31] 0
x_0_0_0_GCN 0
s_0_0_0_GCN 6.9561171531676946e-01
z_0_0_0_GCN 0
x_0_0_1_GCN 2.3559227585789660e-01
s_0_0_1_GCN 0
z_0_0_1_GCN 1
x_0_0_2_GCN 0
s_0_0_2_GCN 1.6090875864028858e-01
z_0_0_2_GCN 0
x_0_0_3_GCN 1.5183533309032518e-01
s_0_0_3_GCN 0
z_0_0_3_GCN 1
x_0_0_4_GCN 0
s_0_0_4_GCN 7.0967183262109457e-01
z_0_0_4_GCN 0
x_0_0_5_GCN 0
s_0_0_5_GCN 2.6267115771770366e-01
z_0_0_5_GCN 0
x_0_0_6_GCN 0
s_0_0_6_GCN 3.7978076003491706e-01
z_0_0_6_GCN 0
x_0_0_7_GCN 0
s_0_0_7_GCN 4.6280752867460057e-02
z_0_0_7_GCN 0
x_0_0_8_GCN 0.831932172179167
s_0_0_8_GCN 0
z_0_0_8_GCN 1
x_0_0_9_GCN 0
s_0_0_9_GCN 3.6083126813173139e-01
z_0_0_9_GCN 0
x_0_0_10_GCN 1.2562494305888730e-01
s_0_0_10_GCN 0
z_0_0_10_GCN 1
x_0_0_11_GCN 4.2628077790137542e-01
s_0_0_11_GCN 0
z_0_0_11_GCN 1
x_0_0_12_GCN 0
s_0_0_12_GCN 8.1036482751369132e-01
z_0_0_12_GCN 0
x_0_0_13_GCN 1.1408124864098328e-01
s_0_0_13_GCN 0
z_0_0_13_GCN 1
x_0_0_14_GCN 0
s_0_0_14_GCN 1.0642358660697888e-01
z_0_0_14_GCN 0
x_0_0_15_GCN 2.7227308228616903e-01
s_0_0_15_GCN 0
z_0_0_15_GCN 1
x_0_0_16_GCN 0
s_0_0_16_GCN 2.5184960663318529e-01
z_0_0_16_GCN 0
x_0_0_17_GCN 0
s_0_0_17_GCN 2.0464475452899847e-01
z_0_0_17_GCN 0
x_0_0_18_GCN 0
s_0_0_18_GCN 4.3394072726368710e-01
z_0_0_18_GCN 0
x_0_0_19_GCN 0
s_0_0_19_GCN 2.4001535028219115e-02
z_0_0_19_GCN 0
x_0_0_20_GCN 5.2139195799824345e-01
s_0_0_20_GCN 0
z_0_0_20_GCN 1
x_0_0_21_GCN 0
s_0_0_21_GCN 6.4225411415099809e-01
z_0_0_21_GCN 0
x_0_0_22_GCN 0
s_0_0_22_GCN 6.5051224827766130e-01
z_0_0_22_GCN 0
x_0_0_23_GCN 0
s_0_0_23_GCN 8.8216558098792655e-02
z_0_0_23_GCN 0
x_0_0_24_GCN 3.1098857522016143e-01
s_0_0_24_GCN 0
z_0_0_24_GCN 1
x_0_0_25_GCN 0
s_0_0_25_GCN 1.0591194182634307e+00
z_0_0_25_GCN 0
x_0_0_26_GCN 0
s_0_0_26_GCN 1.2936980463564338e-01
z_0_0_26_GCN 0
x_0_0_27_GCN 1.4268405735487732e-01
s_0_0_27_GCN 0
z_0_0_27_GCN 1
x_0_0_28_GCN 3.2243450731035583e-01
s_0_0_28_GCN 0
z_0_0_28_GCN 1
x_0_0_29_GCN 2.3926515504721454e-01
s_0_0_29_GCN 0
z_0_0_29_GCN 1
x_0_0_30_GCN 5.2488822489921684e-02
s_0_0_30_GCN 0
z_0_0_30_GCN 1
x_0_0_31_GCN 0
s_0_0_31_GCN 2.7886570990085485e-01
z_0_0_31_GCN 0
x_0_1_0_GCN 0
s_0_1_0_GCN 6.9561171531677013e-01
z_0_1_0_GCN 0
x_0_1_1_GCN 2.3559227585789697e-01
s_0_1_1_GCN 0
z_0_1_1_GCN 1
x_0_1_2_GCN 0
s_0_1_2_GCN 1.6090875864028878e-01
z_0_1_2_GCN 0
x_0_1_3_GCN 1.5183533309032388e-01
s_0_1_3_GCN 0
z_0_1_3_GCN 1
x_0_1_4_GCN 0
s_0_1_4_GCN 7.0967183262109523e-01
z_0_1_4_GCN 0
x_0_1_5_GCN 0
s_0_1_5_GCN 2.6267115771770388e-01
z_0_1_5_GCN 0
x_0_1_6_GCN 0
s_0_1_6_GCN 3.7978076003491745e-01
z_0_1_6_GCN 0
x_0_1_7_GCN 0
s_0_1_7_GCN 4.6280752867460091e-02
z_0_1_7_GCN 0
x_0_1_8_GCN 8.3193217217916549e-01
s_0_1_8_GCN 0
z_0_1_8_GCN 1
x_0_1_9_GCN 0
s_0_1_9_GCN 3.6083126813173172e-01
z_0_1_9_GCN 0
x_0_1_10_GCN 1.2562494305887095e-01
s_0_1_10_GCN 0
z_0_1_10_GCN 1
x_0_1_11_GCN 4.2628077790146435e-01
s_0_1_11_GCN 0
z_0_1_11_GCN 1
x_0_1_12_GCN 0
s_0_1_12_GCN 8.1036482751369210e-01
z_0_1_12_GCN 0
x_0_1_13_GCN 1.1408124864097080e-01
s_0_1_13_GCN 0
z_0_1_13_GCN 1
x_0_1_14_GCN 0
s_0_1_14_GCN 0.106423586606979
z_0_1_14_GCN 0
x_0_1_15_GCN 2.7227308228607505e-01
s_0_1_15_GCN 0
z_0_1_15_GCN 1
x_0_1_16_GCN 0
s_0_1_16_GCN 2.5184960663318551e-01
z_0_1_16_GCN 0
x_0_1_17_GCN 0
s_0_1_17_GCN 2.0464475452899866e-01
z_0_1_17_GCN 0
x_0_1_18_GCN 0
s_0_1_18_GCN 4.3394072726368760e-01
z_0_1_18_GCN 0
x_0_1_19_GCN 0
s_0_1_19_GCN 2.4001535028219147e-02
z_0_1_19_GCN 0
x_0_1_20_GCN 0.521391957998316
s_0_1_20_GCN 0
z_0_1_20_GCN 1
x_0_1_21_GCN 0
s_0_1_21_GCN 6.4225411415099887e-01
z_0_1_21_GCN 0
x_0_1_22_GCN 0
s_0_1_22_GCN 6.5051224827766208e-01
z_0_1_22_GCN 0
x_0_1_23_GCN 0
s_0_1_23_GCN 8.8216558098792724e-02
z_0_1_23_GCN 0
x_0_1_24_GCN 3.1098857522008516e-01
s_0_1_24_GCN 0
z_0_1_24_GCN 1
x_0_1_25_GCN 0
s_0_1_25_GCN 1.0591194182634318e+00
z_0_1_25_GCN 0
x_0_1_26_GCN 0
s_0_1_26_GCN 1.2936980463564354e-01
z_0_1_26_GCN 0
x_0_1_27_GCN 1.4268405735487463e-01
s_0_1_27_GCN 0
z_0_1_27_GCN 1
x_0_1_28_GCN 3.2243450731035461e-01
s_0_1_28_GCN 0
z_0_1_28_GCN 1
x_0_1_29_GCN 2.3926515504714335e-01
s_0_1_29_GCN 0
z_0_1_29_GCN 1
x_0_1_30_GCN 5.2488822489919068e-02
s_0_1_30_GCN 0
z_0_1_30_GCN 1
x_0_1_31_GCN 0
s_0_1_31_GCN 2.7886570990085513e-01
z_0_1_31_GCN 0
x_0_2_0_GCN 0
s_0_2_0_GCN 6.9561171531676469e-01
z_0_2_0_GCN 0
x_0_2_1_GCN 2.3559227585795417e-01
s_0_2_1_GCN 0
z_0_2_1_GCN 1
x_0_2_2_GCN 0
s_0_2_2_GCN 1.6090875864028770e-01
z_0_2_2_GCN 0
x_0_2_3_GCN 1.5183533309017339e-01
s_0_2_3_GCN -1.0070525142957809e-13
z_0_2_3_GCN 1
x_0_2_4_GCN 0
s_0_2_4_GCN 7.0967183262108968e-01
z_0_2_4_GCN 0
x_0_2_5_GCN 0
s_0_2_5_GCN 2.6267115771770194e-01
z_0_2_5_GCN 0
x_0_2_6_GCN 0
s_0_2_6_GCN 3.7978076003491457e-01
z_0_2_6_GCN 0
x_0_2_7_GCN 0
s_0_2_7_GCN 4.6280752867459467e-02
z_0_2_7_GCN 0
x_0_2_8_GCN 8.3193217217917415e-01
s_0_2_8_GCN 0
z_0_2_8_GCN 1
x_0_2_9_GCN 0
s_0_2_9_GCN 0.360831268131729
z_0_2_9_GCN 0
x_0_2_10_GCN 1.2562494305883853e-01
s_0_2_10_GCN 0
z_0_2_10_GCN 1
x_0_2_11_GCN 4.2628077790137919e-01
s_0_2_11_GCN 0
z_0_2_11_GCN 1
x_0_2_12_GCN 0
s_0_2_12_GCN 8.1036482751368566e-01
z_0_2_12_GCN 0
x_0_2_13_GCN 1.1408124864096103e-01
s_0_2_13_GCN 0
z_0_2_13_GCN 1
x_0_2_14_GCN 0
s_0_2_14_GCN 1.0642358660697790e-01
z_0_2_14_GCN 0
x_0_2_15_GCN 2.7227308228608710e-01
s_0_2_15_GCN 0
z_0_2_15_GCN 1
x_0_2_16_GCN 0
s_0_2_16_GCN 2.5184960663318362e-01
z_0_2_16_GCN 0
x_0_2_17_GCN 0
s_0_2_17_GCN 2.0464475452899680e-01
z_0_2_17_GCN 0
x_0_2_18_GCN 0
s_0_2_18_GCN 4.3394072726368427e-01
z_0_2_18_GCN 0
x_0_2_19_GCN 0
s_0_2_19_GCN 2.4001535028218980e-02
z_0_2_19_GCN 0
x_0_2_20_GCN 5.2139195799824878e-01
s_0_2_20_GCN 0
z_0_2_20_GCN 1
x_0_2_21_GCN 0
s_0_2_21_GCN 6.4225411415099387e-01
z_0_2_21_GCN 0
x_0_2_22_GCN 0
s_0_2_22_GCN 6.5051224827765664e-01
z_0_2_22_GCN 0
x_0_2_23_GCN 0
s_0_2_23_GCN 8.8216558098792169e-02
z_0_2_23_GCN 0
x_0_2_24_GCN 0.310988575220089
s_0_2_24_GCN 0
z_0_2_24_GCN 1
x_0_2_25_GCN 0
s_0_2_25_GCN 1.0591194182634234e+00
z_0_2_25_GCN 0
x_0_2_26_GCN 0
s_0_2_26_GCN 1.2936980463564235e-01
z_0_2_26_GCN 0
x_0_2_27_GCN 1.4268405735496625e-01
s_0_2_27_GCN 0
z_0_2_27_GCN 1
x_0_2_28_GCN 3.2243450731036583e-01
s_0_2_28_GCN 0
z_0_2_28_GCN 1
x_0_2_29_GCN 2.3926515504719503e-01
s_0_2_29_GCN 0
z_0_2_29_GCN 1
x_0_2_30_GCN 5.2488822489934764e-02
s_0_2_30_GCN 0
z_0_2_30_GCN 1
x_0_2_31_GCN 0
s_0_2_31_GCN 2.7886570990085291e-01
z_0_2_31_GCN 0
x_0_3_0_GCN 0
s_0_3_0_GCN 0.695611715316768
z_0_3_0_GCN 0
x_0_3_1_GCN 2.3559227585794970e-01
s_0_3_1_GCN 0
z_0_3_1_GCN 1
x_0_3_2_GCN 0
s_0_3_2_GCN 1.6090875864028806e-01
z_0_3_2_GCN 0
x_0_3_3_GCN 1.5183533309023839e-01
s_0_3_3_GCN 0
z_0_3_3_GCN 1
x_0_3_4_GCN 0
s_0_3_4_GCN 0.709671832621093
z_0_3_4_GCN 0
x_0_3_5_GCN 0
s_0_3_5_GCN 2.6267115771770305e-01
z_0_3_5_GCN 0
x_0_3_6_GCN 0
s_0_3_6_GCN 3.7978076003491640e-01
z_0_3_6_GCN 0
x_0_3_7_GCN 0
s_0_3_7_GCN 4.6280752867460244e-02
z_0_3_7_GCN 0
x_0_3_8_GCN 8.3193217217918369e-01
s_0_3_8_GCN 0
z_0_3_8_GCN 1
x_0_3_9_GCN 0
s_0_3_9_GCN 3.6083126813173055e-01
z_0_3_9_GCN 0
x_0_3_10_GCN 1.2562494305898175e-01
s_0_3_10_GCN 0
z_0_3_10_GCN 1
x_0_3_11_GCN 4.2628077790138619e-01
s_0_3_11_GCN 0
z_0_3_11_GCN 1
x_0_3_12_GCN 0
s_0_3_12_GCN 8.1036482751368966e-01
z_0_3_12_GCN 0
x_0_3_13_GCN 1.1408124864104872e-01
s_0_3_13_GCN 0
z_0_3_13_GCN 1
x_0_3_14_GCN 0
s_0_3_14_GCN 1.0642358660697901e-01
z_0_3_14_GCN 0
x_0_3_15_GCN 2.7227308228609221e-01
s_0_3_15_GCN 0
z_0_3_15_GCN 1
x_0_3_16_GCN 0
s_0_3_16_GCN 2.5184960663318462e-01
z_0_3_16_GCN 0
x_0_3_17_GCN 0
s_0_3_17_GCN 2.0464475452899838e-01
z_0_3_17_GCN 0
x_0_3_18_GCN 0
s_0_3_18_GCN 4.3394072726368638e-01
z_0_3_18_GCN 0
x_0_3_19_GCN 0
s_0_3_19_GCN 2.4001535028219050e-02
z_0_3_19_GCN 0
x_0_3_20_GCN 5.2139195799825289e-01
s_0_3_20_GCN 0
z_0_3_20_GCN 1
x_0_3_21_GCN 0
s_0_3_21_GCN 0.642254114150997
z_0_3_21_GCN 0
x_0_3_22_GCN 0
s_0_3_22_GCN 6.5051224827766052e-01
z_0_3_22_GCN 0
x_0_3_23_GCN 0
s_0_3_23_GCN 8.8216558098792364e-02
z_0_3_23_GCN 0
x_0_3_24_GCN 3.1098857522009249e-01
s_0_3_24_GCN 0
z_0_3_24_GCN 1
x_0_3_25_GCN 0
s_0_3_25_GCN 1.0591194182634289e+00
z_0_3_25_GCN 0
x_0_3_26_GCN 0
s_0_3_26_GCN 1.2936980463564335e-01
z_0_3_26_GCN 0
x_0_3_27_GCN 1.4268405735497364e-01
s_0_3_27_GCN 0
z_0_3_27_GCN 1
x_0_3_28_GCN 3.2243450731036732e-01
s_0_3_28_GCN 0
z_0_3_28_GCN 1
x_0_3_29_GCN 2.3926515504715445e-01
s_0_3_29_GCN 0
z_0_3_29_GCN 1
x_0_3_30_GCN 5.2488822489935361e-02
s_0_3_30_GCN 0
z_0_3_30_GCN 1
x_0_3_31_GCN 0
s_0_3_31_GCN 2.7886570990085424e-01
z_0_3_31_GCN 0
x_1_0_0_GCN 0
s_1_0_0_GCN 0
z_1_0_0_GCN 1
x_1_0_1_GCN 0
s_1_0_1_GCN 6.2337244333667913e-02
z_1_0_1_GCN 0
x_1_0_2_GCN 0
s_1_0_2_GCN 1.1793475694555582e-01
z_1_0_2_GCN 0
x_1_0_3_GCN 0
s_1_0_3_GCN 3.8701517935098850e-01
z_1_0_3_GCN 0
x_1_0_4_GCN 0
s_1_0_4_GCN 0
z_1_0_4_GCN 1
x_1_0_5_GCN 0
s_1_0_5_GCN 8.0287663747684590e-03
z_1_0_5_GCN 0
x_1_0_6_GCN 0
s_1_0_6_GCN 0
z_1_0_6_GCN 1
x_1_0_7_GCN 0
s_1_0_7_GCN 3.4059899204448457e-01
z_1_0_7_GCN 0
x_1_0_8_GCN 0
s_1_0_8_GCN 0
z_1_0_8_GCN 1
x_1_0_9_GCN 0
s_1_0_9_GCN 3.2262393450998472e-01
z_1_0_9_GCN 0
x_1_0_10_GCN 0
s_1_0_10_GCN 2.9693743656332250e-01
z_1_0_10_GCN 0
x_1_0_11_GCN 0
s_1_0_11_GCN 0
z_1_0_11_GCN 1
x_1_0_12_GCN 0
s_1_0_12_GCN 1.6721020903244668e-01
z_1_0_12_GCN 0
x_1_0_13_GCN 0
s_1_0_13_GCN 0
z_1_0_13_GCN 1
x_1_0_14_GCN 0
s_1_0_14_GCN 0
z_1_0_14_GCN 1
x_1_0_15_GCN 0
s_1_0_15_GCN 0
z_1_0_15_GCN 1
x_1_0_16_GCN 0
s_1_0_16_GCN 3.1366123812796826e-01
z_1_0_16_GCN 0
x_1_0_17_GCN 0
s_1_0_17_GCN 0
z_1_0_17_GCN 1
x_1_0_18_GCN 0
s_1_0_18_GCN 3.2990998510957333e-02
z_1_0_18_GCN 0
x_1_0_19_GCN 0
s_1_0_19_GCN 0
z_1_0_19_GCN 1
x_1_0_20_GCN 0
s_1_0_20_GCN 0
z_1_0_20_GCN 1
x_1_0_21_GCN 0
s_1_0_21_GCN 0
z_1_0_21_GCN 1
x_1_0_22_GCN 0
s_1_0_22_GCN 0
z_1_0_22_GCN 1
x_1_0_23_GCN 0
s_1_0_23_GCN 6.9527714637223070e-02
z_1_0_23_GCN 0
x_1_0_24_GCN 0
s_1_0_24_GCN 0
z_1_0_24_GCN 1
x_1_0_25_GCN 0
s_1_0_25_GCN 0
z_1_0_25_GCN 1
x_1_0_26_GCN 0
s_1_0_26_GCN 5.2858882313736782e-02
z_1_0_26_GCN 0
x_1_0_27_GCN 0
s_1_0_27_GCN 3.3042494885212748e-01
z_1_0_27_GCN 0
x_1_0_28_GCN 0
s_1_0_28_GCN 0
z_1_0_28_GCN 1
x_1_0_29_GCN 0
s_1_0_29_GCN 1.7710537851288244e-01
z_1_0_29_GCN 0
x_1_0_30_GCN 0
s_1_0_30_GCN 0
z_1_0_30_GCN 1
x_1_0_31_GCN 0
s_1_0_31_GCN 4.0396937973495384e-01
z_1_0_31_GCN 0
x_1_1_0_GCN 0
s_1_1_0_GCN -3.6757678064519572e-12
z_1_1_0_GCN 1
x_1_1_1_GCN 0
s_1_1_1_GCN 6.2337244337110520e-02
z_1_1_1_GCN 0
x_1_1_2_GCN 0
s_1_1_2_GCN 1.1793475694897060e-01
z_1_1_2_GCN 0
x_1_1_3_GCN 0
s_1_1_3_GCN 3.8701517934689750e-01
z_1_1_3_GCN 0
x_1_1_4_GCN 0
s_1_1_4_GCN 2.8105005302203612e-12
z_1_1_4_GCN 1
x_1_1_5_GCN 0
s_1_1_5_GCN 0.00802876637798974
z_1_1_5_GCN 0
x_1_1_6_GCN 0
s_1_1_6_GCN -3.5057172009106408e-12
z_1_1_6_GCN 1
x_1_1_7_GCN 0
s_1_1_7_GCN 3.4059899204773370e-01
z_1_1_7_GCN 0
x_1_1_8_GCN 0
s_1_1_8_GCN 3.5697304487380954e-12
z_1_1_8_GCN 1
x_1_1_9_GCN 0
s_1_1_9_GCN 3.2262393450740112e-01
z_1_1_9_GCN 0
x_1_1_10_GCN 0
s_1_1_10_GCN 2.9693743656612387e-01
z_1_1_10_GCN 0
x_1_1_11_GCN 0
s_1_1_11_GCN -3.8387964682029541e-12
z_1_1_11_GCN 1
x_1_1_12_GCN 0
s_1_1_12_GCN 1.6721020903524941e-01
z_1_1_12_GCN 0
x_1_1_13_GCN 0
s_1_1_13_GCN 3.1234936512247735e-12
z_1_1_13_GCN 1
x_1_1_14_GCN 0
s_1_1_14_GCN -3.5627815801742013e-12
z_1_1_14_GCN 1
x_1_1_15_GCN 0
s_1_1_15_GCN 3.2797540724938123e-12
z_1_1_15_GCN 1
x_1_1_16_GCN 0
s_1_1_16_GCN 3.1366123812527041e-01
z_1_1_16_GCN 0
x_1_1_17_GCN 0
s_1_1_17_GCN 3.4551886091832573e-12
z_1_1_17_GCN 1
x_1_1_18_GCN 0
s_1_1_18_GCN 3.2990998508154304e-02
z_1_1_18_GCN 0
x_1_1_19_GCN 0
s_1_1_19_GCN -3.8837284083159673e-12
z_1_1_19_GCN 1
x_1_1_20_GCN 0
s_1_1_20_GCN 3.6077083161167867e-12
z_1_1_20_GCN 1
x_1_1_21_GCN 0
s_1_1_21_GCN 3.3522243141070884e-12
z_1_1_21_GCN 1
x_1_1_22_GCN 0
s_1_1_22_GCN -4.0709116850071170e-12
z_1_1_22_GCN 1
x_1_1_23_GCN 0
s_1_1_23_GCN 6.9527714639965849e-02
z_1_1_23_GCN 0
x_1_1_24_GCN 0
s_1_1_24_GCN -2.7624326437436508e-12
z_1_1_24_GCN 1
x_1_1_25_GCN 0
s_1_1_25_GCN -3.5359371680643292e-12
z_1_1_25_GCN 1
x_1_1_26_GCN 0
s_1_1_26_GCN 5.2858882316845809e-02
z_1_1_26_GCN 0
x_1_1_27_GCN 0
s_1_1_27_GCN 3.3042494884894380e-01
z_1_1_27_GCN 0
x_1_1_28_GCN 0
s_1_1_28_GCN -3.6486536448415707e-12
z_1_1_28_GCN 1
x_1_1_29_GCN 0
s_1_1_29_GCN 1.7710537850952332e-01
z_1_1_29_GCN 0
x_1_1_30_GCN 0
s_1_1_30_GCN -2.7265213741259342e-12
z_1_1_30_GCN 1
x_1_1_31_GCN 0
s_1_1_31_GCN 4.0396937973230590e-01
z_1_1_31_GCN 0
x_1_2_0_GCN 0
s_1_2_0_GCN -3.7192124380247549e-12
z_1_2_0_GCN 1
x_1_2_1_GCN 0
s_1_2_1_GCN 6.2337244337110374e-02
z_1_2_1_GCN 0
x_1_2_2_GCN 0
s_1_2_2_GCN 1.1793475694897038e-01
z_1_2_2_GCN 0
x_1_2_3_GCN 0
s_1_2_3_GCN 3.8701517934689633e-01
z_1_2_3_GCN 0
x_1_2_4_GCN 0
s_1_2_4_GCN 2.4922412224237522e-12
z_1_2_4_GCN 1
x_1_2_5_GCN 0
s_1_2_5_GCN 8.0287663779897121e-03
z_1_2_5_GCN 0
x_1_2_6_GCN 0
s_1_2_6_GCN -2.2009347469542639e-12
z_1_2_6_GCN 1
x_1_2_7_GCN 0
s_1_2_7_GCN 0.340598992047733
z_1_2_7_GCN 0
x_1_2_8_GCN 0
s_1_2_8_GCN 3.1174793649335619e-12
z_1_2_8_GCN 1
x_1_2_9_GCN 0
s_1_2_9_GCN 3.2262393450740023e-01
z_1_2_9_GCN 0
x_1_2_10_GCN 0
s_1_2_10_GCN 2.9693743656612315e-01
z_1_2_10_GCN 0
x_1_2_11_GCN 0
s_1_2_11_GCN -3.4378272797952469e-12
z_1_2_11_GCN 1
x_1_2_12_GCN 0
s_1_2_12_GCN 1.6721020903524908e-01
z_1_2_12_GCN 0
x_1_2_13_GCN 0
s_1_2_13_GCN 2.4836335245359553e-12
z_1_2_13_GCN 1
x_1_2_14_GCN 0
s_1_2_14_GCN -2.3753431947076686e-12
z_1_2_14_GCN 1
x_1_2_15_GCN 0
s_1_2_15_GCN 2.5323939993604494e-12
z_1_2_15_GCN 1
x_1_2_16_GCN 0
s_1_2_16_GCN 3.1366123812526969e-01
z_1_2_16_GCN 0
x_1_2_17_GCN 0
s_1_2_17_GCN 3.3207937268076027e-12
z_1_2_17_GCN 1
x_1_2_18_GCN 0
s_1_2_18_GCN 3.2990998508154193e-02
z_1_2_18_GCN 0
x_1_2_19_GCN 0
s_1_2_19_GCN -3.6529208477520392e-12
z_1_2_19_GCN 1
x_1_2_20_GCN 0
s_1_2_20_GCN 3.6178776988138317e-12
z_1_2_20_GCN 1
x_1_2_21_GCN 0
s_1_2_21_GCN 2.7648356694387477e-12
z_1_2_21_GCN 1
x_1_2_22_GCN 0
s_1_2_22_GCN -3.9021831555949293e-12
z_1_2_22_GCN 1
x_1_2_23_GCN 0
s_1_2_23_GCN 0.0695277146399657
z_1_2_23_GCN 0
x_1_2_24_GCN 0
s_1_2_24_GCN -2.7230440124981214e-12
z_1_2_24_GCN 1
x_1_2_25_GCN 0
s_1_2_25_GCN -4.0542747110905442e-12
z_1_2_25_GCN 1
x_1_2_26_GCN 0
s_1_2_26_GCN 5.2858882316845705e-02
z_1_2_26_GCN 0
x_1_2_27_GCN 0
s_1_2_27_GCN 3.3042494884894319e-01
z_1_2_27_GCN 0
x_1_2_28_GCN 0
s_1_2_28_GCN -2.6743785137839371e-12
z_1_2_28_GCN 1
x_1_2_29_GCN 0
s_1_2_29_GCN 1.7710537850952296e-01
z_1_2_29_GCN 0
x_1_2_30_GCN 0
s_1_2_30_GCN -1.5654983277595125e-12
z_1_2_30_GCN 1
x_1_2_31_GCN 0
s_1_2_31_GCN 0.403969379732305
z_1_2_31_GCN 0
x_1_3_0_GCN 0
s_1_3_0_GCN -3.0229204556198042e-12
z_1_3_0_GCN 1
x_1_3_1_GCN 0
s_1_3_1_GCN 6.2337244337110478e-02
z_1_3_1_GCN 0
x_1_3_2_GCN 0
s_1_3_2_GCN 1.1793475694897054e-01
z_1_3_2_GCN 0
x_1_3_3_GCN 0
s_1_3_3_GCN 3.8701517934689705e-01
z_1_3_3_GCN 0
x_1_3_4_GCN 0
s_1_3_4_GCN 2.3989148341396760e-12
z_1_3_4_GCN 1
x_1_3_5_GCN 0
s_1_3_5_GCN 8.0287663779897156e-03
z_1_3_5_GCN 0
x_1_3_6_GCN 0
s_1_3_6_GCN -2.9091310523726710e-12
z_1_3_6_GCN 1
x_1_3_7_GCN 0
s_1_3_7_GCN 3.4059899204773342e-01
z_1_3_7_GCN 0
x_1_3_8_GCN 0
s_1_3_8_GCN 3.2612757980277074e-12
z_1_3_8_GCN 1
x_1_3_9_GCN 0
s_1_3_9_GCN 3.2262393450740090e-01
z_1_3_9_GCN 0
x_1_3_10_GCN 0
s_1_3_10_GCN 2.9693743656612370e-01
z_1_3_10_GCN 0
x_1_3_11_GCN 0
s_1_3_11_GCN -3.1194326635675118e-12
z_1_3_11_GCN 1
x_1_3_12_GCN 0
s_1_3_12_GCN 1.6721020903524933e-01
z_1_3_12_GCN 0
x_1_3_13_GCN 0
s_1_3_13_GCN 2.4360661057820643e-12
z_1_3_13_GCN 1
x_1_3_14_GCN 0
s_1_3_14_GCN -2.7412848466884521e-12
z_1_3_14_GCN 1
x_1_3_15_GCN 0
s_1_3_15_GCN 2.6479682162239282e-12
z_1_3_15_GCN 1
x_1_3_16_GCN 0
s_1_3_16_GCN 3.1366123812527030e-01
z_1_3_16_GCN 0
x_1_3_17_GCN 0
s_1_3_17_GCN 2.9501967275386010e-12
z_1_3_17_GCN 1
x_1_3_18_GCN 0
s_1_3_18_GCN 3.2990998508154241e-02
z_1_3_18_GCN 0
x_1_3_19_GCN 0
s_1_3_19_GCN -3.1749789429491582e-12
z_1_3_19_GCN 1
x_1_3_20_GCN 0
s_1_3_20_GCN 3.0447068477545969e-12
z_1_3_20_GCN 1
x_1_3_21_GCN 0
s_1_3_21_GCN 3.0074246044897723e-12
z_1_3_21_GCN 1
x_1_3_22_GCN 0
s_1_3_22_GCN -3.2564520741421021e-12
z_1_3_22_GCN 1
x_1_3_23_GCN 0
s_1_3_23_GCN 6.9527714639965835e-02
z_1_3_23_GCN 0
x_1_3_24_GCN 0
s_1_3_24_GCN -2.3885030238368632e-12
z_1_3_24_GCN 1
x_1_3_25_GCN 0
s_1_3_25_GCN -3.11666100913377e-12
z_1_3_25_GCN 1
x_1_3_26_GCN 0
s_1_3_26_GCN 5.2858882316845796e-02
z_1_3_26_GCN 0
x_1_3_27_GCN 0
s_1_3_27_GCN 3.3042494884894363e-01
z_1_3_27_GCN 0
x_1_3_28_GCN 0
s_1_3_28_GCN -2.9763734879506565e-12
z_1_3_28_GCN 1
x_1_3_29_GCN 0
s_1_3_29_GCN 1.7710537850952324e-01
z_1_3_29_GCN 0
x_1_3_30_GCN 0
s_1_3_30_GCN -2.0092251972435304e-12
z_1_3_30_GCN 1
x_1_3_31_GCN 0
s_1_3_31_GCN 4.0396937973230573e-01
z_1_3_31_GCN 0
h[0] 6.8528455970601621e-01
h[1] 0
h[2] 0
h[3] 0
h[4] 2.5533034988364434e+00
h[5] 0
h[6] 1.4904104016867656e+00
h[7] 0
h[8] 2.44284355796738
h[9] 0
h[10] 0
h[11] 8.7432140490082078e-01
h[12] 0
h[13] 1.4965915313788130e+00
h[14] 2.2905689739268853e+00
h[15] 1.3231904576835787e+00
h[16] 0
h[17] 1.9990261692301731e-01
h[18] 0
h[19] 9.1308313136355190e-01
h[20] 1.1101411218559032e-01
h[21] 1.6951235905331745e+00
h[22] 1.2965086506695833e+00
h[23] 0
h[24] 2.4793083666256993e-01
h[25] 2.8185057946580888e-01
h[26] 0
h[27] 0
h[28] 1.3556728083796707e+00
h[29] 0
h[30] 2.5351269790594371e+00
h[31] 0
y 1.6865953229158588e+00
x_1_0_ANN 2.0141356979024243e+00
s_1_0_ANN 0
z_1_0_ANN 1
x_1_1_ANN 1.7797821231681574e+00
s_1_1_ANN 5.1138704981745775e-07
z_1_1_ANN 1
x_1_2_ANN 0
s_1_2_ANN 1.0144709404042174e-01
z_1_2_ANN 0
x_1_3_ANN 7.6060397213036612e-01
s_1_3_ANN 0
z_1_3_ANN 1
x_1_4_ANN 1.4291180867203821e+00
s_1_4_ANN 0
z_1_4_ANN 1
x_1_5_ANN 1.8695974080085165e-04
s_1_5_ANN 0
z_1_5_ANN 1
x_1_6_ANN 0
s_1_6_ANN 2.6640716494724237e-01
z_1_6_ANN 0
x_1_7_ANN 0
s_1_7_ANN 3.5840599646206978e-02
z_1_7_ANN 0
x_1_8_ANN 8.5023293946882772e-01
s_1_8_ANN 0
z_1_8_ANN 1
x_1_9_ANN 3.6543590941986470e-01
s_1_9_ANN 0
z_1_9_ANN 1
x_1_10_ANN 5.5591861387459673e-01
s_1_10_ANN 0
z_1_10_ANN 1
x_1_11_ANN 0
s_1_11_ANN 1.2416654953279888e-01
z_1_11_ANN 0
x_1_12_ANN 2.8373628092724712e-01
s_1_12_ANN 0
z_1_12_ANN 1
x_1_13_ANN 1.6990306391741827e+00
s_1_13_ANN 0
z_1_13_ANN 1
x_1_14_ANN 1.5161056161028210e+00
s_1_14_ANN 0
z_1_14_ANN 1
x_1_15_ANN 0
s_1_15_ANN 5.6691324640129914e-01
z_1_15_ANN 0
